6 12 7 11 5 3 9 8 10 1 4 2 0 13 6
5 11 7 12 6 3 9 8 10 1 2 0 13 4 5
6 12 7 11 5 3 2 1 10 8 9 0 13 4 6
12 6 5 11 3 2 1 8 10 7 9 0 4 13 12
1 0 10 9 8 7 12 11 6 5 3 2 4 13 1
12 6 11 4 5 3 2 7 8 9 10 1 0 13 12
7 1 0 10 9 8 12 6 2 11 5 4 3 13 7
7 1 0 9 10 8 12 6 2 11 5 4 3 13 7
7 1 0 10 9 8 12 6 11 3 4 5 2 13 7
1 7 0 10 9 8 12 6 11 5 4 3 13 2 1
